
Gurobi 6.0.0 (linux64) logging started Sat 28 Feb 2015 03:08:32 PM CST

Optimize a model with 37 rows, 256 columns and 4352 nonzeros
Coefficient statistics:
  Matrix range    [1e+00, 1e+00]
  Objective range [0e+00, 0e+00]
  Bounds range    [1e+00, 1e+00]
  RHS range       [4e+00, 9e+00]
Presolve removed 18 rows and 0 columns
Presolve time: 0.00s
Presolved: 19 rows, 256 columns, 2082 nonzeros
Variable types: 0 continuous, 256 integer (256 binary)

Root relaxation: objective 0.000000e+00, 26 iterations, 0.00 seconds

    Nodes    |    Current Node    |     Objective Bounds      |     Work
 Expl Unexpl |  Obj  Depth IntInf | Incumbent    BestBd   Gap | It/Node Time

     0     0    0.00000    0    6          -    0.00000      -     -    0s
     0     0    0.00000    0   16          -    0.00000      -     -    0s
*    0     0               0       0.0000000    0.00000  0.00%     -    0s

Cutting planes:
  Zero half: 5

Explored 0 nodes (155 simplex iterations) in 0.02 seconds
Thread count was 2 (of 4 available processors)

Optimal solution found (tolerance 1.00e-04)
Best objective 0.000000000000e+00, best bound 0.000000000000e+00, gap 0.0%

Gurobi 6.0.0 (linux64) logging started Sat 28 Feb 2015 03:11:36 PM CST

Optimize a model with 37 rows, 256 columns and 4352 nonzeros
Coefficient statistics:
  Matrix range    [1e+00, 1e+00]
  Objective range [0e+00, 0e+00]
  Bounds range    [1e+00, 1e+00]
  RHS range       [4e+00, 9e+00]
Presolve removed 18 rows and 0 columns
Presolve time: 0.01s
Presolved: 19 rows, 256 columns, 2082 nonzeros
Variable types: 0 continuous, 256 integer (256 binary)

Root relaxation: objective 0.000000e+00, 26 iterations, 0.00 seconds

    Nodes    |    Current Node    |     Objective Bounds      |     Work
 Expl Unexpl |  Obj  Depth IntInf | Incumbent    BestBd   Gap | It/Node Time

     0     0    0.00000    0    6          -    0.00000      -     -    0s
     0     0    0.00000    0   16          -    0.00000      -     -    0s
*    0     0               0       0.0000000    0.00000  0.00%     -    0s

Cutting planes:
  Zero half: 5

Explored 0 nodes (155 simplex iterations) in 0.04 seconds
Thread count was 2 (of 4 available processors)

Optimal solution found (tolerance 1.00e-04)
Best objective 0.000000000000e+00, best bound 0.000000000000e+00, gap 0.0%

Gurobi 6.0.0 (linux64) logging started Sat 28 Feb 2015 03:13:17 PM CST

Optimize a model with 37 rows, 256 columns and 4352 nonzeros
Coefficient statistics:
  Matrix range    [1e+00, 1e+00]
  Objective range [0e+00, 0e+00]
  Bounds range    [1e+00, 1e+00]
  RHS range       [4e+00, 9e+00]
Presolve removed 18 rows and 0 columns
Presolve time: 0.00s
Presolved: 19 rows, 256 columns, 2082 nonzeros
Variable types: 0 continuous, 256 integer (256 binary)

Root relaxation: objective 0.000000e+00, 26 iterations, 0.00 seconds

    Nodes    |    Current Node    |     Objective Bounds      |     Work
 Expl Unexpl |  Obj  Depth IntInf | Incumbent    BestBd   Gap | It/Node Time

     0     0    0.00000    0    6          -    0.00000      -     -    0s
     0     0    0.00000    0   16          -    0.00000      -     -    0s
*    0     0               0       0.0000000    0.00000  0.00%     -    0s

Cutting planes:
  Zero half: 5

Explored 0 nodes (155 simplex iterations) in 0.02 seconds
Thread count was 2 (of 4 available processors)

Optimal solution found (tolerance 1.00e-04)
Best objective 0.000000000000e+00, best bound 0.000000000000e+00, gap 0.0%

Gurobi 6.0.0 (linux64) logging started Sat 28 Feb 2015 03:13:51 PM CST

Optimize a model with 37 rows, 256 columns and 4352 nonzeros
Coefficient statistics:
  Matrix range    [1e+00, 1e+00]
  Objective range [0e+00, 0e+00]
  Bounds range    [1e+00, 1e+00]
  RHS range       [4e+00, 9e+00]
Presolve removed 18 rows and 0 columns
Presolve time: 0.00s
Presolved: 19 rows, 256 columns, 2082 nonzeros
Variable types: 0 continuous, 256 integer (256 binary)

Root relaxation: objective 0.000000e+00, 26 iterations, 0.00 seconds

    Nodes    |    Current Node    |     Objective Bounds      |     Work
 Expl Unexpl |  Obj  Depth IntInf | Incumbent    BestBd   Gap | It/Node Time

     0     0    0.00000    0    6          -    0.00000      -     -    0s
     0     0    0.00000    0   16          -    0.00000      -     -    0s
*    0     0               0       0.0000000    0.00000  0.00%     -    0s

Cutting planes:
  Zero half: 5

Explored 0 nodes (155 simplex iterations) in 0.02 seconds
Thread count was 2 (of 4 available processors)

Optimal solution found (tolerance 1.00e-04)
Best objective 0.000000000000e+00, best bound 0.000000000000e+00, gap 0.0%

Gurobi 6.0.0 (linux64) logging started Sat 28 Feb 2015 03:14:15 PM CST

Optimize a model with 37 rows, 256 columns and 4352 nonzeros
Coefficient statistics:
  Matrix range    [1e+00, 1e+00]
  Objective range [0e+00, 0e+00]
  Bounds range    [1e+00, 1e+00]
  RHS range       [4e+00, 9e+00]
Presolve removed 18 rows and 0 columns
Presolve time: 0.00s
Presolved: 19 rows, 256 columns, 2082 nonzeros
Variable types: 0 continuous, 256 integer (256 binary)

Root relaxation: objective 0.000000e+00, 26 iterations, 0.00 seconds

    Nodes    |    Current Node    |     Objective Bounds      |     Work
 Expl Unexpl |  Obj  Depth IntInf | Incumbent    BestBd   Gap | It/Node Time

     0     0    0.00000    0    6          -    0.00000      -     -    0s
     0     0    0.00000    0   16          -    0.00000      -     -    0s
*    0     0               0       0.0000000    0.00000  0.00%     -    0s

Cutting planes:
  Zero half: 5

Explored 0 nodes (155 simplex iterations) in 0.02 seconds
Thread count was 2 (of 4 available processors)

Optimal solution found (tolerance 1.00e-04)
Best objective 0.000000000000e+00, best bound 0.000000000000e+00, gap 0.0%

Gurobi 6.0.0 (linux64) logging started Sat 28 Feb 2015 03:14:17 PM CST

Optimize a model with 37 rows, 256 columns and 4352 nonzeros
Coefficient statistics:
  Matrix range    [1e+00, 1e+00]
  Objective range [0e+00, 0e+00]
  Bounds range    [1e+00, 1e+00]
  RHS range       [4e+00, 9e+00]
Presolve removed 18 rows and 0 columns
Presolve time: 0.00s
Presolved: 19 rows, 256 columns, 2082 nonzeros
Variable types: 0 continuous, 256 integer (256 binary)

Root relaxation: objective 0.000000e+00, 26 iterations, 0.00 seconds

    Nodes    |    Current Node    |     Objective Bounds      |     Work
 Expl Unexpl |  Obj  Depth IntInf | Incumbent    BestBd   Gap | It/Node Time

     0     0    0.00000    0    6          -    0.00000      -     -    0s
     0     0    0.00000    0   16          -    0.00000      -     -    0s
*    0     0               0       0.0000000    0.00000  0.00%     -    0s

Cutting planes:
  Zero half: 5

Explored 0 nodes (155 simplex iterations) in 0.02 seconds
Thread count was 2 (of 4 available processors)

Optimal solution found (tolerance 1.00e-04)
Best objective 0.000000000000e+00, best bound 0.000000000000e+00, gap 0.0%

Gurobi 6.0.0 (linux64) logging started Sat 28 Feb 2015 03:14:21 PM CST

Optimize a model with 37 rows, 256 columns and 4352 nonzeros
Coefficient statistics:
  Matrix range    [1e+00, 1e+00]
  Objective range [0e+00, 0e+00]
  Bounds range    [1e+00, 1e+00]
  RHS range       [4e+00, 9e+00]
Presolve removed 18 rows and 0 columns
Presolve time: 0.00s
Presolved: 19 rows, 256 columns, 2082 nonzeros
Variable types: 0 continuous, 256 integer (256 binary)

Root relaxation: objective 0.000000e+00, 26 iterations, 0.00 seconds

    Nodes    |    Current Node    |     Objective Bounds      |     Work
 Expl Unexpl |  Obj  Depth IntInf | Incumbent    BestBd   Gap | It/Node Time

     0     0    0.00000    0    6          -    0.00000      -     -    0s
     0     0    0.00000    0   16          -    0.00000      -     -    0s
*    0     0               0       0.0000000    0.00000  0.00%     -    0s

Cutting planes:
  Zero half: 5

Explored 0 nodes (155 simplex iterations) in 0.02 seconds
Thread count was 2 (of 4 available processors)

Optimal solution found (tolerance 1.00e-04)
Best objective 0.000000000000e+00, best bound 0.000000000000e+00, gap 0.0%

Gurobi 6.0.0 (linux64) logging started Sat 28 Feb 2015 03:14:22 PM CST

Optimize a model with 37 rows, 256 columns and 4352 nonzeros
Coefficient statistics:
  Matrix range    [1e+00, 1e+00]
  Objective range [0e+00, 0e+00]
  Bounds range    [1e+00, 1e+00]
  RHS range       [4e+00, 9e+00]
Presolve removed 18 rows and 0 columns
Presolve time: 0.00s
Presolved: 19 rows, 256 columns, 2082 nonzeros
Variable types: 0 continuous, 256 integer (256 binary)

Root relaxation: objective 0.000000e+00, 26 iterations, 0.00 seconds

    Nodes    |    Current Node    |     Objective Bounds      |     Work
 Expl Unexpl |  Obj  Depth IntInf | Incumbent    BestBd   Gap | It/Node Time

     0     0    0.00000    0    6          -    0.00000      -     -    0s
     0     0    0.00000    0   16          -    0.00000      -     -    0s
*    0     0               0       0.0000000    0.00000  0.00%     -    0s

Cutting planes:
  Zero half: 5

Explored 0 nodes (155 simplex iterations) in 0.02 seconds
Thread count was 2 (of 4 available processors)

Optimal solution found (tolerance 1.00e-04)
Best objective 0.000000000000e+00, best bound 0.000000000000e+00, gap 0.0%

Gurobi 6.0.0 (linux64) logging started Sat 28 Feb 2015 03:14:23 PM CST

Optimize a model with 37 rows, 256 columns and 4352 nonzeros
Coefficient statistics:
  Matrix range    [1e+00, 1e+00]
  Objective range [0e+00, 0e+00]
  Bounds range    [1e+00, 1e+00]
  RHS range       [4e+00, 9e+00]
Presolve removed 18 rows and 0 columns
Presolve time: 0.00s
Presolved: 19 rows, 256 columns, 2082 nonzeros
Variable types: 0 continuous, 256 integer (256 binary)

Root relaxation: objective 0.000000e+00, 26 iterations, 0.00 seconds

    Nodes    |    Current Node    |     Objective Bounds      |     Work
 Expl Unexpl |  Obj  Depth IntInf | Incumbent    BestBd   Gap | It/Node Time

     0     0    0.00000    0    6          -    0.00000      -     -    0s
     0     0    0.00000    0   16          -    0.00000      -     -    0s
*    0     0               0       0.0000000    0.00000  0.00%     -    0s

Cutting planes:
  Zero half: 5

Explored 0 nodes (155 simplex iterations) in 0.02 seconds
Thread count was 2 (of 4 available processors)

Optimal solution found (tolerance 1.00e-04)
Best objective 0.000000000000e+00, best bound 0.000000000000e+00, gap 0.0%
